100
1550
91 74
20 16
81 58
50 35
76 72
30 15
85 77
65 52
44 28
70 63
60 45
25 19
88 66
55 40
33 23
95 81
18 12
62 50
42 31
75 68
51 37
68 54
39 25
90 79
58 43
72 60
29 21
64 48
82 70
47 33
78 64
40 27
71 56
54 39
89 75
26 18
77 62
63 47
45 29
84 76
22 14
69 53
52 36
80 67
37 24
61 49
83 71
48 32
73 59
57 42
92 78
24 17
67 55
53 38
86 73
28 20
66 51
79 69
49 34
74 61
41 26
70 57
59 44
94 80
19 13
76 65
46 30
60 46
34 22
75 63
56 41
17 11
65 50
87 77
16 10
68 54
50 35
81 72
27 19
62 48
78 66
43 31
72 58
61 45
93 82
23 15
71 60
52 37
85 74
38 28
67 52
80 69
36 25
63 47
77 64
44 33
70 59
58 43
88 76
32 21
